100
128
55
22
51
48
24
14
56
8
64
25
57
11
6
42
15
12
27
10
45
47
64
3
11
35
40
49
28
34
28
46
19
16
26
44
19
45
20
63
16
23
54
39
48
33
55
63
3
53
35
43
23
34
1
16
40
29
59
55
15
1
39
29
32
47
33
36
36
56
47
24
22
44
20
34
64
46
30
20
20
34
12
43
19
17
18
8
4
58
27
50
34
58
64
44
56
16
55
43
63
64